problems/csplib-prob056/sonet-models/noch/O2/lingeling/model_8_1-s3ring08-solution000001.solution
language Essence 1.3

letting network be mset({}, {}, {1, 4, 5, 7, 13}, {1, 12}, {2, 3, 6, 10}, {2, 5, 8, 11, 12}, {3, 8, 9, 10, 12})
$ Here is a simple "visualisation" for the value above.
$ 
$ 
$  1  4  5  7 13
$  1 12
$  2  3  6 10
$  2  5  8 11 12
$  3  8  9 10 12

